SCIP Status        : solving was interrupted [time limit reached]
Total Time         :    3600.00
  solving          :    3600.00
  presolving       :       0.39 (included in solving)
  reading          :       0.00
  copying          :       1.63 (60 #copies) (minimal 0.00, maximal 0.10, average 0.03)
Original Problem   :
  Problem name     : bbbenchmark/g05_100.3.cut
  Variables        : 101 (100 binary, 0 integer, 0 implicit integer, 1 continuous)
  Constraints      : 1 initial, 1 maximal
  Objective        : minimize, 1 non-zeros (abs.min = 1, abs.max = 1)
Presolved Problem  :
  Problem name     : t_bbbenchmark/g05_100.3.cut
  Variables        : 1898 (100 binary, 0 integer, 1784 implicit integer, 14 continuous)
  Constraints      : 1824 initial, 8962 maximal
  Objective        : minimize, 1 non-zeros (abs.min = 1, abs.max = 1)
  Nonzeros         : 8697 constraint, 202 clique table
Presolvers         :   ExecTime  SetupTime  Calls  FixedVars   AggrVars   ChgTypes  ChgBounds   AddHoles    DelCons    AddCons   ChgSides   ChgCoefs
  boundshift       :       0.00       0.00      0          0          0          0          0          0          0          0          0          0
  convertinttobin  :       0.00       0.00      0          0          0          0          0          0          0          0          0          0
  domcol           :       0.00       0.00      1          0          0          0          0          0          0          0          0          0
  dualagg          :       0.00       0.00      0          0          0          0          0          0          0          0          0          0
  dualcomp         :       0.00       0.00      1          0          0          0          0          0          0          0          0          0
  dualinfer        :       0.00       0.00      0          0          0          0          0          0          0          0          0          0
  dualsparsify     :       0.00       0.00      1          0          0          0          0          0          0          0          0          0
  gateextraction   :       0.00       0.00      0          0          0          0          0          0          0          0          0          0
  implics          :       0.00       0.00      2          0          0          0          0          0          0          0          0          0
  inttobinary      :       0.00       0.00      0          0          0          0          0          0          0          0          0          0
  qpkktref         :       0.00       0.00      0          0          0          0          0          0          0          0          0          0
  redvub           :       0.00       0.00      0          0          0          0          0          0          0          0          0          0
  sparsify         :       0.00       0.00      1          0          0          0          0          0          0          0          0          0
  stuffing         :       0.00       0.00      0          0          0          0          0          0          0          0          0          0
  trivial          :       0.00       0.00      4          0          0          0          0          0          0          0          0          0
  tworowbnd        :       0.00       0.00      0          0          0          0          0          0          0          0          0          0
  dualfix          :       0.00       0.00      4          0          0          0          0          0          0          0          0          0
  genvbounds       :       0.00       0.00      0          0          0          0          0          0          0          0          0          0
  probing          :       0.32       0.00      1          0          0          0          0          0          0          0          0          0
  pseudoobj        :       0.00       0.00      1          0          0          0          1          0          0          0          0          0
  symmetry         :       0.00       0.00      0          0          0          0          0          0          0          0          0          0
  vbounds          :       0.00       0.00      1          0          0          0          0          0          0          0          0          0
  varbound         :       0.00       0.00      2          0          0          0          0          0          0          0          0          0
  and              :       0.01       0.00      2          0          0          0          0          0          0          0          0          0
  linear           :       0.00       0.00      2          0          0          0          0          0          0          0          0          0
  logicor          :       0.00       0.00      0          0          0          0          0          0          0          0          0          0
  bounddisjunction :       0.00       0.00      0          0          0          0          0          0          0          0          0          0
  nonlinear        :       0.06       0.00      5          0          0          0          1          0          0       1823          0          0
  benders          :       0.00       0.00      0          0          0          0          0          0          0          0          0          0
  components       :       0.00       0.00      1          0          0          0          0          0          0          0          0          0
  root node        :          -          -      -          0          -          -         14          -          -          -          -          -
Constraints        :     Number  MaxNumber  #Separate #Propagate    #EnfoLP    #EnfoRelax  #EnfoPS    #Check   #ResProp    Cutoffs    DomReds       Cuts    Applied      Conss   Children
  benderslp        :          0          0          0          0      63777          0          0       7869          0          0          0          0          0          0          0
  integral         :          0          0          0          0      63777          0          0       7869          0          0        205          0          0        203     127254
  varbound         :         13         13        165     464993          0          0          0         27          0          0      50651          0          0          0          0
  and              :       1784       1784      84839     511528          3          0          0         27     312894          0     164049      26041      23247          0          0
  linear           :         27+        36        165     511580          3          0          0         25        666          3     198834          0          0          0          0
  logicor          :          0+      6943          0      84705          0          0          0          0         51        231         13          0          0          0          0
  bounddisjunction :          0+       419          0      36955          0          0          0          0          0         16          2          0          0          0          0
  benders          :          0          0          0          0          3          0          0         24          0          0          0          0          0          0          0
  countsols        :          0          0          0          0          3          0          0         24          0          0          0          0          0          0          0
  components       :          0          0          0          0          0          0          0          0          0          0          0          0          0          0          0
Constraint Timings :  TotalTime  SetupTime   Separate  Propagate     EnfoLP     EnfoPS     EnfoRelax   Check    ResProp    SB-Prop
  benderslp        :       0.10       0.00       0.00       0.00       0.09       0.00       0.00       0.01       0.00       0.00
  integral         :      53.70       0.00       0.00       0.00      53.68       0.00       0.00       0.02       0.00       0.00
  varbound         :       0.75       0.00       0.00       0.75       0.00       0.00       0.00       0.00       0.00       0.00
  and              :      64.50       0.00      46.16      17.65       0.00       0.00       0.00       0.02       0.17       0.50
  linear           :       2.64       0.00       0.16       2.45       0.00       0.00       0.00       0.00       0.00       0.03
  logicor          :       5.81       0.00       0.00       5.76       0.00       0.00       0.00       0.00       0.00       0.05
  bounddisjunction :       0.61       0.00       0.00       0.61       0.00       0.00       0.00       0.00       0.00       0.00
  benders          :       0.00       0.00       0.00       0.00       0.00       0.00       0.00       0.00       0.00       0.00
  countsols        :       0.00       0.00       0.00       0.00       0.00       0.00       0.00       0.00       0.00       0.00
  components       :       0.09       0.00       0.00       0.09       0.00       0.00       0.00       0.00       0.00       0.00
Propagators        : #Propagate   #ResProp    Cutoffs    DomReds
  dualfix          :          4          0          0          0
  genvbounds       :          0          0          0          0
  nlobbt           :          0          0          0          0
  obbt             :          0          0          0          0
  probing          :          0          0          0          0
  pseudoobj        :     276943          0          0         14
  redcost          :     157466          0          0      40197
  rootredcost      :         15          0          0          0
  symmetry         :          0          0          0          0
  vbounds          :      84030          0          0          0
Propagator Timings :  TotalTime  SetupTime   Presolve  Propagate    ResProp    SB-Prop
  dualfix          :       0.00       0.00       0.00       0.00       0.00       0.00
  genvbounds       :       0.28       0.00       0.00       0.28       0.00       0.00
  nlobbt           :       0.00       0.00       0.00       0.00       0.00       0.00
  obbt             :       0.00       0.00       0.00       0.00       0.00       0.00
  probing          :       0.32       0.00       0.32       0.00       0.00       0.00
  pseudoobj        :       0.47       0.00       0.00       0.47       0.00       0.00
  redcost          :       9.33       0.00       0.00       9.33       0.00       0.00
  rootredcost      :       0.34       0.00       0.00       0.33       0.00       0.01
  symmetry         :       0.18       0.00       0.00       0.18       0.00       0.00
  vbounds          :       0.43       0.00       0.00       0.42       0.00       0.01
Conflict Analysis  :       Time      Calls    Success    DomReds  Conflicts   Literals    Reconvs ReconvLits   Dualrays   Nonzeros   LP Iters   (pool size: [10000,10000])
  propagation      :       0.01        247        178          -        223       61.9          0        0.0          -          -          -
  infeasible LP    :       0.05         20         20          -        840      146.6          0        0.0         35      192.7          0
  bound exceed. LP :      10.93       3818       3493          -      82993      111.9          1       51.0          0        0.0      31603
  strong branching :       0.00          0          0          -          0        0.0          0        0.0          -          -          0
  pseudo solution  :       0.00          0          0          -          0        0.0          0        0.0          -          -          -
  applied globally :       0.40          -          -          0      19285      117.6          -          -         35          -          -
  applied locally  :          -          -          -          0          0        0.0          -          -          0          -          -
Separators         :   ExecTime  SetupTime      Calls  RootCalls    Cutoffs    DomReds  FoundCuts ViaPoolAdd  DirectAdd    Applied ViaPoolApp  DirectApp      Conss
  cut pool         :       7.07          -      23996        197          -          -      47896    1673896          -          -          -          -          -    (maximal pool size:       3988)
  aggregation      :      65.06       0.00       9277        165          0          0       2227       3075          0        688        688          0          0
  > cmir           :          -          -          -          -          -          -          -       3075          0        688        688          0          -
  > flowcover      :          -          -          -          -          -          -          -          0          0          0          0          0          -
  > knapsackcover  :          -          -          -          -          -          -          -          0          0          0          0          0          -
  cgmip            :       0.00       0.00          0          0          0          0          0          0          0          0          0          0          0
  clique           :       0.00       0.00        165        165          0          0          0          0          0          0          0          0          0
  closecuts        :       0.00       0.00          0          0          0          0          0          0          0          0          0          0          0
  convexproj       :       0.00       0.00          0          0          0          0          0          0          0          0          0          0          0
  disjunctive      :       0.00       0.00          0          0          0          0          0          0          0          0          0          0          0
  eccuts           :       0.00       0.00          0          0          0          0          0          0          0          0          0          0          0
  gauge            :       0.00       0.00          0          0          0          0          0          0          0          0          0          0          0
  gomory           :       0.00       0.00          0          0          0          0          0          0          0          0          0          0          0
  > gomorymi       :          -          -          -          -          -          -          -          0          0          0          0          0          -
  > strongcg       :          -          -          -          -          -          -          -          0          0          0          0          0          -
  impliedbounds    :       0.75       0.00       9277        165          0          0        345         43          0         24         24          0          0
  interlattice     :       1.12       0.00        137        137          0          0        137          0        137        136          0        136          0
  interminor       :       0.00       0.00          0          0          0          0          0          0          0          0          0          0          0
  intersub         :       0.10       0.00          3          3          0          0          1          0          1          1          0          1          0
  intobj           :       0.00       0.00          0          0          0          0          0          0          0          0          0          0          0
  mcf              :       0.01       0.00          1          1          0          0          0          0          0          0          0          0          0
  minor            :       0.02       0.00          0          0          0          0          0          0          0          0          0          0          0
  mixing           :       0.06       0.00       9277        165          0          0          0          0          0          0          0          0          0
  oddcycle         :       0.00       0.00          0          0          0          0          0          0          0          0          0          0          0
  rapidlearning    :       0.01       0.00          0          0          0          0          0          0          0          0          0          0          0
  rlt              :       0.00       0.00         10         10          0          0          0          0          0          0          0          0          0
  zerohalf         :      80.83       0.00       8481         20          0          0      45324    1670778          0     154807     154807          0          0
Cutselectors       :   ExecTime  SetupTime      Calls  RootCalls   Selected     Forced   Filtered  RootSelec   RootForc   RootFilt 
  hybrid           :       1.79       0.00      23863        167     178903          0    1521172        334          0         42
Pricers            :   ExecTime  SetupTime      Calls       Vars
  problem variables:       0.00          -          0          0
Branching Rules    :   ExecTime  SetupTime   BranchLP  BranchExt   BranchPS    Cutoffs    DomReds       Cuts      Conss   Children
  allfullstrong    :       0.00       0.00          0          0          0          0          0          0          0          0
  cloud            :       0.00       0.00          0          0          0          0          0          0          0          0
  distribution     :       0.00       0.00          0          0          0          0          0          0          0          0
  fullstrong       :       0.00       0.00          0          0          0          0          0          0          0          0
  inference        :       0.00       0.00          0          0          0          0          0          0          0          0
  leastinf         :       0.00       0.00          0          0          0          0          0          0          0          0
  lookahead        :       0.00       0.00          0          0          0          0          0          0          0          0
  mostinf          :       0.00       0.00          0          0          0          0          0          0          0          0
  multaggr         :       0.00       0.00          0          0          0          0          0          0          0          0
  nodereopt        :       0.00       0.00          0          0          0          0          0          0          0          0
  pscost           :       0.00       0.00          0          0          0          0          0          0          0          0
  random           :       0.00       0.00          0          0          0          0          0          0          0          0
  relpscost        :      53.54       0.00      63774          0          0          0        205          0        203     127254
  vanillafullstrong:       0.00       0.00          0          0          0          0          0          0          0          0
Primal Heuristics  :   ExecTime  SetupTime      Calls      Found       Best
  LP solutions     :       0.00          -          -          3          3
  relax solutions  :       0.00          -          -          0          0
  pseudo solutions :       0.00          -          -          0          0
  strong branching :       0.04          -          -          0          0
  actconsdiving    :       0.00       0.00          0          0          0
  adaptivediving   :       4.92       0.00         33          0          0
  alns             :       3.10       0.00         20          5          5
  bound            :       0.00       0.00          0          0          0
  clique           :       0.01       0.00          1          0          0
  coefdiving       :       0.00       0.00          0          0          0
  completesol      :       0.00       0.00          0          0          0
  conflictdiving   :      43.22       0.00        338          0          0
  crossover        :       5.57       0.00          5          0          0
  dins             :       0.00       0.00          0          0          0
  distributiondivin:      68.99       0.00        338          0          0
  dps              :       0.00       0.00          0          0          0
  dualval          :       0.00       0.00          0          0          0
  farkasdiving     :       0.00       0.00          0          0          0
  feaspump         :       0.32       0.00          1          1          1
  fixandinfer      :       0.00       0.00          0          0          0
  fracdiving       :      44.96       0.00        339          0          0
  gins             :       0.12       0.00          0          0          0
  guideddiving     :      41.41       0.00        338          0          0
  indicator        :       0.09       0.00          0          0          0
  indicatordiving  :       0.00       0.00          0          0          0
  intdiving        :       0.00       0.00          0          0          0
  intshifting      :       0.20       0.00         27          0          0
  linesearchdiving :      42.34       0.00        338          0          0
  localbranching   :       0.00       0.00          0          0          0
  locks            :       0.02       0.00          1          0          0
  lpface           :       0.05       0.00          0          0          0
  mpec             :     101.82       0.00         11          3          3
  multistart       :       0.00       0.00          0          0          0
  mutation         :       0.00       0.00          0          0          0
  nlpdiving        :      23.64       0.00          3          0          0
  objpscostdiving  :      78.92       0.00         58          2          1
  octane           :       0.00       0.00          0          0          0
  ofins            :       0.06       0.00          0          0          0
  oneopt           :       0.10       0.00         19          0          0
  padm             :       0.00       0.00          0          0          0
  proximity        :       0.00       0.00          0          0          0
  pscostdiving     :      51.46       0.00        338          2          2
  randrounding     :       1.48       0.00       7843          0          0
  rens             :       0.00       0.00          0          0          0
  reoptsols        :       0.00       0.00          0          0          0
  repair           :       0.00       0.00          0          0          0
  rins             :       4.42       0.00         34          3          3
  rootsoldiving    :      40.94       0.00         32          0          0
  rounding         :       1.29       0.00       4044          0          0
  shiftandpropagate:       0.00       0.00          0          0          0
  shifting         :      37.55       0.00       7701          2          2
  simplerounding   :       0.07       0.00          0          0          0
  subnlp           :     111.68       0.00          0          0          0
  trivial          :       0.00       0.00          2          2          2
  trivialnegation  :       0.00       0.00          0          0          0
  trustregion      :       0.00       0.00          0          0          0
  trysol           :       0.15       0.00          0          0          0
  twoopt           :       0.00       0.00          0          0          0
  undercover       :       1.59       0.00          1          1          1
  vbounds          :       0.00       0.00          0          0          0
  veclendiving     :      41.14       0.00        338          0          0
  zeroobj          :       0.00       0.00          0          0          0
  zirounding       :       0.51       0.00       1000          0          0
  other solutions  :          -          -          -          0          -
Diving (single)    :      Calls      Nodes   LP Iters Backtracks  Conflicts   MinDepth   MaxDepth   AvgDepth  RoundSols  NLeafSols  MinSolDpt  MaxSolDpt  AvgSolDpt
  actconsdiving    :          0          -          -          -          -          -          -          -          -          -          -          -          -
  coefdiving       :          0          -          -          -          -          -          -          -          -          -          -          -          -
  conflictdiving   :        338      14637     444333        351      22106         52         85       62.3          0          -          -          -          -
  distributiondivin:        338      12586     578615        372       6163         51         72       56.1          0          -          -          -          -
  farkasdiving     :          0          -          -          -          -          -          -          -          -          -          -          -          -
  fracdiving       :        339      52243     442359         79        782         57        667      174.0          0          -          -          -          -
  guideddiving     :        338      43292     431311         56       1169         58        427      148.6          0          -          -          -          -
  indicatordiving  :          0          -          -          -          -          -          -          -          -          -          -          -          -
  linesearchdiving :        338      14537     471322        345      19596         48         99       62.2          0          -          -          -          -
  pscostdiving     :        338      16226     558941        343       8913         55         80       66.5          0          2         68         80       74.0
  veclendiving     :        338      14102     448066        323      23020         55         86       60.6          0          -          -          -          -
Diving (adaptive)  :      Calls      Nodes   LP Iters Backtracks  Conflicts   MinDepth   MaxDepth   AvgDepth  RoundSols  NLeafSols  MinSolDpt  MaxSolDpt  AvgSolDpt
  actconsdiving    :          2         84       3258          2         14         55         60       57.5          0          -          -          -          -
  coefdiving       :         15        663      20507         11        907         54         92       62.1          0          -          -          -          -
  conflictdiving   :          0          -          -          -          -          -          -          -          -          -          -          -          -
  distributiondivin:          0          -          -          -          -          -          -          -          -          -          -          -          -
  farkasdiving     :          0          -          -          -          -          -          -          -          -          -          -          -          -
  fracdiving       :          0          -          -          -          -          -          -          -          -          -          -          -          -
  guideddiving     :          0          -          -          -          -          -          -          -          -          -          -          -          -
  indicatordiving  :          0          -          -          -          -          -          -          -          -          -          -          -          -
  linesearchdiving :          7        338      10718          7        366         54         80       65.4          0          -          -          -          -
  pscostdiving     :          3        130       6730          3         75         63         66       64.0          0          -          -          -          -
  veclendiving     :          6        265       8085          5        412         57         67       61.0          0          -          -          -          -
Neighborhoods      :      Calls  SetupTime  SolveTime SolveNodes       Sols       Best       Exp3  EpsGreedy        UCB TgtFixRate  Opt  Inf Node Stal  Sol  Usr Othr Actv
  rens             :          4       0.37       0.81         81          0          0    0.00000   -1.00000    0.46056      0.522    0    3    0    1    0    0    0    1
  rins             :          2       0.11       0.06         87          0          0    0.00000   -1.00000    0.46385      0.850    0    1    0    1    0    0    0    1
  mutation         :          3       0.10       0.51        582          2          2    0.00000   -1.00000    0.50223      0.662    1    1    0    1    0    0    0    1
  localbranching   :          1       0.02       0.02         53          0          0    0.00000   -1.00000    0.51679      0.900    0    0    0    1    0    0    0    1
  crossover        :          4       0.15       0.20        100          2          2    0.00000   -1.00000    0.52125      0.522    1    2    0    1    0    0    0    1
  proximity        :          2       0.06       0.09         66          0          0    0.00000   -1.00000    0.46622      0.850    0    1    0    1    0    0    0    1
  zeroobjective    :          2       0.05       0.28        554          1          1    0.00000   -1.00000    0.49515      0.850    1    0    0    1    0    0    0    1
  dins             :          2       0.07       0.06         64          0          0    0.00000   -1.00000    0.47264      0.850    0    1    0    1    0    0    0    1
  trustregion      :          0       0.00       0.00          0          0          0    0.00000   -1.00000    1.00000      0.900    0    0    0    0    0    0    0    0
Expressions        :   #IntEval  IntEvalTi   #RevProp  RevPropTi    DomReds    Cutoffs  #Estimate  EstimTime  Branching  #Simplify SimplifyTi Simplified
  pow              :          0       0.00          0       0.00          0          0          0       0.00          0          0       0.00          0
  prod             :       9900       0.00          0       0.00          0          0          0       0.00          0       6734       0.02          0
  sum              :          8       0.00          2       0.00          0          0          0       0.00          0          3       0.00          2
  var              :       6503       0.00          0       0.00          0          0          0       0.00          0      15568       0.00          0
  varidx           :          0       0.00          0       0.00          0          0          0       0.00          0          0       0.00          0
LP                 :       Time      Calls Iterations  Iter/call   Iter/sec  Time-0-It Calls-0-It    ItLimit
  primal LP        :     131.99      11374          0       0.00       0.00     131.93      11374
  dual LP          :    2303.82     132948   15137361     119.28    6570.55       2.25       6043
  lex dual LP      :       0.00          0          0       0.00          -
  barrier LP       :       0.00          0          0       0.00          -       0.00          0
  resolve instable :       0.00          0          0       0.00          -
  diving/probing LP:     394.49      14673    4111193     280.19   10421.54
  strong branching :      32.27       1842     320380     173.93    9928.11          -          -        322
    (at root node) :          -         19       5119     269.42          -
  conflict analysis:       4.24       3218      31603       9.82    7453.54
NLP relaxation     :
  solve time       :      23.45 (16 calls)
  convexity        :  nonconvex (40 linear rows, 0 convex ineq., 0 nonconvex ineq., 1784 nonlinear eq. or two-sided ineq.)
NLP Solvers        :  #Problems  ProblemTi    #Solves  SolveTime      #Iter  Time/Iter      #Okay #TimeLimit #IterLimit #LObjLimit #Interrupt  #NumError #EvalError  #OutOfMem #LicenseEr #OtherTerm   #GlobOpt    #LocOpt  #Feasible #LocInfeas #GlobInfea #Unbounded   #Unknown
  ipopt            :         12       4.18         46     127.62       1721       0.07         44          0          2          0          0          0          0          0          0          0          0         32          0         11          0          0          3
B&B Tree           :
  number of runs   :          1
  nodes            :     102897 (63627 internal, 39270 leaves)
  feasible leaves  :          3
  infeas. leaves   :          2
  objective leaves :      39265
  nodes (total)    :     102897 (63627 internal, 39270 leaves)
  nodes left       :      24094
  max depth        :         61
  max depth (total):         61
  backtracks       :      24643 (23.9%)
  early backtracks :          0 (0.0%)
  nodes exc. ref.  :          0 (0.0%)
  delayed cutoffs  :          3
  repropagations   :         27 (116 domain reductions, 0 cutoffs)
  avg switch length:       6.41
  switching time   :     155.98
Estim. Tree Size   :     206322
Estimation Tree    : 127255 nodes (103161 visited, 63627 internal, 39534 leaves, 24094 open), weight: 0.0000 completed 0.0806
Estimations        :      estim      value      trend resolution     smooth
  wbe              : 41121287939392          -          -          -          -
  tree-profile     :         -1          -          -          -          -
  gap              :    2683898    0.68148    0.00002         64    2641422
  tree-weight      :     206322    0.00000    0.00000         64     205980
  leaf-frequency   :    1791564    0.38322    0.00001         64    1958512
  ssg              :    5226639    0.87269   -0.00002         64    5145326
  open-nodes       :     206322 24094.00000   22.92576         64     205980
Root Node          :
  First LP value   : -1.00000000000000e+00
  First LP Iters   :       1667 (11113.33 Iter/sec)
  First LP Time    :       0.15
  Final Dual Bound : -9.40215758245038e-01
  Final Root Iters :       4956
  Root LP Estimate : -2.64628891341705e-01
Solution           :
  Solutions found  :         24 (23 improvements)
  First Solution   : +1.00000000000000e+05   (in run 1, after 0 nodes, 0.00 seconds, depth 0, found by <trivial>)
  Gap First Sol.   :   infinite
  Gap Last Sol.    :      49.82 %
  Primal Bound     : -5.67676767676766e-01   (in run 1, after 48722 nodes, 891.74 seconds, depth 40, found by <alns>)
  Dual Bound       : -8.33011025003098e-01
  Gap              :      46.74 %
Integrals          :      Total       Avg%
  primal-dual      :  120220.51      33.39
  primal-ref       :          -          - (not evaluated)
  dual-ref         :          -          - (not evaluated)
